NAME: random-89-13804
TYPE: TSP
COMMENT: size=89 seed=13804
DIMENSION: 180
EDGE_WEIGHT_TYPE: EUC_2D
NODE_COORD_SECTION
+0 828 891
-0 828 891
+1 682 454
-1 473 875
+2 173 442
-2 189 670
+3 478 149
-3 709 195
+4 100 534
-4 436 514
+5 598 316
-5 926 807
+6 280 501
-6 553 690
+7 990 27
-7 786 17
+8 214 883
-8 720 22
+9 512 469
-9 556 263
+10 198 27
-10 147 991
+11 469 39
-11 119 0
+12 668 500
-12 544 694
+13 778 258
-13 599 154
+14 91 607
-14 270 120
+15 399 756
-15 874 555
+16 511 566
-16 77 988
+17 258 486
-17 175 330
+18 412 194
-18 596 539
+19 769 867
-19 83 619
+20 191 266
-20 23 363
+21 373 350
-21 606 405
+22 592 137
-22 459 376
+23 305 133
-23 735 45
+24 528 396
-24 253 878
+25 652 215
-25 576 445
+26 861 355
-26 136 156
+27 457 809
-27 647 861
+28 195 835
-28 165 511
+29 533 204
-29 617 648
+30 408 698
-30 49 886
+31 543 966
-31 790 903
+32 265 647
-32 500 813
+33 403 973
-33 393 340
+34 774 156
-34 549 620
+35 545 488
-35 333 713
+36 533 786
-36 381 257
+37 780 103
-37 453 690
+38 247 697
-38 334 450
+39 753 157
-39 713 309
+40 505 152
-40 674 245
+41 375 14
-41 991 456
+42 151 375
-42 634 201
+43 868 366
-43 516 539
+44 229 181
-44 822 993
+45 412 247
-45 286 936
+46 823 303
-46 277 278
+47 448 379
-47 41 624
+48 251 265
-48 349 476
+49 364 946
-49 508 760
+50 206 809
-50 650 806
+51 118 789
-51 318 185
+52 607 583
-52 492 88
+53 422 609
-53 895 578
+54 341 917
-54 858 339
+55 530 710
-55 415 251
+56 12 353
-56 944 619
+57 186 513
-57 144 845
+58 900 249
-58 268 277
+59 403 128
-59 546 988
+60 24 177
-60 329 126
+61 372 15
-61 727 192
+62 355 448
-62 400 188
+63 907 708
-63 369 994
+64 825 806
-64 973 641
+65 981 67
-65 901 904
+66 654 862
-66 472 331
+67 202 731
-67 347 987
+68 293 572
-68 18 748
+69 211 476
-69 543 182
+70 685 316
-70 807 704
+71 120 519
-71 91 995
+72 400 669
-72 238 197
+73 473 129
-73 460 287
+74 376 521
-74 491 267
+75 942 825
-75 946 543
+76 587 697
-76 429 340
+77 844 205
-77 298 418
+78 866 52
-78 262 376
+79 850 187
-79 659 178
+80 254 706
-80 885 950
+81 284 136
-81 949 42
+82 227 43
-82 825 722
+83 133 720
-83 689 409
+84 31 80
-84 19 653
+85 289 822
-85 2 105
+86 25 825
-86 727 738
+87 754 343
-87 566 193
+88 510 520
-88 417 900
+89 278 678
-89 497 308
PRECEDENCE_SECTION
+0 -0
+1 -1
+2 -2
+3 -3
+4 -4
+5 -5
+6 -6
+7 -7
+8 -8
+9 -9
+10 -10
+11 -11
+12 -12
+13 -13
+14 -14
+15 -15
+16 -16
+17 -17
+18 -18
+19 -19
+20 -20
+21 -21
+22 -22
+23 -23
+24 -24
+25 -25
+26 -26
+27 -27
+28 -28
+29 -29
+30 -30
+31 -31
+32 -32
+33 -33
+34 -34
+35 -35
+36 -36
+37 -37
+38 -38
+39 -39
+40 -40
+41 -41
+42 -42
+43 -43
+44 -44
+45 -45
+46 -46
+47 -47
+48 -48
+49 -49
+50 -50
+51 -51
+52 -52
+53 -53
+54 -54
+55 -55
+56 -56
+57 -57
+58 -58
+59 -59
+60 -60
+61 -61
+62 -62
+63 -63
+64 -64
+65 -65
+66 -66
+67 -67
+68 -68
+69 -69
+70 -70
+71 -71
+72 -72
+73 -73
+74 -74
+75 -75
+76 -76
+77 -77
+78 -78
+79 -79
+80 -80
+81 -81
+82 -82
+83 -83
+84 -84
+85 -85
+86 -86
+87 -87
+88 -88
+89 -89
EOF
